c This is QMaxSAT 2017 based on 14.07
c This is Glucose 3.0
c This is MiniSat 2.2.0
c WARNING: for repeatability, setting FPU to use double precision
c card = mrwto, comp = 0, pmodel = 0, narr = 5, mct = 24, verb = 0
cr firstCPXsol 0 0 0
c top = 81479
c |  Number of variables:    1568                                             |
c |  Number of clauses:      36442                                            |
c |  Weight of hard clauses: 81479                                            |
c |  Number of soft clauses: 3680                                             |
c |  Number of unit soft clauses: 0                                           |
c |  Maximum Cardinality (by unit): 581270       (0           )               |
c last restart ## conflicts  :  0 126 
o 1206 | cpuTime 0.006488 s
c Sum of weights = 116254
c A number of soft clauses remained = 736
c MRWTO encoding for Pseudo-Boolean Constraints
c sizeMax=1206
c No.0 Divisor=11	generated by pow1
c No.1 Divisor=11	generated by pow1
c No.2 Divisor=11	generated by pow1
c p0= 11	p1= 11	p2= 11	
c number of digits = 4
c linkingVar[0].size = 11, linkingVar[1].size = 11, linkingVar[2].size = 10, linkingVar[3].size = 1, 
c Pseudo-Boolean Constraints: 15844 variables and 139201 clauses
c Sum of weights = 116254
c A number of soft clauses remained = 736
c MRWTO encoding for Pseudo-Boolean Constraints
c sizeMax=1206
c No.0 Divisor=11	generated by pow1
c No.1 Divisor=11	generated by pow1
c No.2 Divisor=11	generated by pow1
c p0= 11	p1= 11	p2= 11	
c number of digits = 4
c linkingVar[0].size = 11, linkingVar[1].size = 11, linkingVar[2].size = 10, linkingVar[3].size = 1, 
c Pseudo-Boolean Constraints: 15844 variables and 139201 clauses
c Sum of weights = 116254
c A number of soft clauses remained = 736
c MRWTO encoding for Pseudo-Boolean Constraints
c sizeMax=1206
c No.0 Divisor=11	generated by pow1
c No.1 Divisor=11	generated by pow1
c No.2 Divisor=11	generated by pow1
c p0= 11	p1= 11	p2= 11	
c number of digits = 4
c linkingVar[0].size = 11, linkingVar[1].size = 11, linkingVar[2].size = 10, linkingVar[3].size = 1, 
c Pseudo-Boolean Constraints: 15844 variables and 139201 clauses
c Sum of weights = 116254
c A number of soft clauses remained = 736
c MRWTO encoding for Pseudo-Boolean Constraints
c sizeMax=1206
c No.0 Divisor=11	generated by pow1
c No.1 Divisor=11	generated by pow1
c No.2 Divisor=11	generated by pow1
c p0= 11	p1= 11	p2= 11	
c number of digits = 4
c linkingVar[0].size = 11, linkingVar[1].size = 11, linkingVar[2].size = 10, linkingVar[3].size = 1, 
c Pseudo-Boolean Constraints: 15844 variables and 139201 clauses
c Sum of weights = 116254
c A number of soft clauses remained = 736
c MRWTO encoding for Pseudo-Boolean Constraints
c sizeMax=1206
c No.0 Divisor=11	generated by pow1
c No.1 Divisor=11	generated by pow1
c No.2 Divisor=11	generated by pow1
c p0= 11	p1= 11	p2= 11	
c number of digits = 4
c linkingVar[0].size = 11, linkingVar[1].size = 11, linkingVar[2].size = 10, linkingVar[3].size = 1, 
c Pseudo-Boolean Constraints: 15844 variables and 139201 clauses
c last restart ## conflicts  :  179 2503 
o 942 | cpuTime 0.5203 s
c last restart ## conflicts  :  149 1795 
o 868 | cpuTime 2.28655 s
c last restart ## conflicts  :  519 1348 
o 863 | cpuTime 8.74825 s
c last restart ## conflicts  :  147 1400 
o 834 | cpuTime 8.80792 s
c last restart ## conflicts  :  430 1090 
o 797 | cpuTime 12.4512 s
c last restart ## conflicts  :  593 967 
o 783 | cpuTime 21.6179 s
c last restart ## conflicts  :  310 1431 
o 769 | cpuTime 53.1742 s
c last restart ## conflicts  :  132 995 
o 762 | cpuTime 61.7791 s
c last restart ## conflicts  :  425 1041 
o 746 | cpuTime 103.5 s
c last restart ## conflicts  :  2 1058 
o 741 | cpuTime 133.583 s
c last restart ## conflicts  :  713 1099 
o 733 | cpuTime 420.726 s
c last restart ## conflicts  :  75 1432 
o 732 | cpuTime 492.732 s
c last restart ## conflicts  :  7 1654 
o 700 | cpuTime 817.721 s
c last restart ## conflicts  :  39 1276 
o 684 | cpuTime 1126.44 s
c last restart ## conflicts  :  300 1263 
o 673 | cpuTime 1868.55 s
s UNKNOWN
c Search is stopped by a limit (maybe time-limit)
cr positiVarArr: [ | 12(1->8) | 47(1->15) | 73(1->13) | 104(1->16) | 119(1->3) | 164(2->20) | 183(3->11) | 199(4->1) | 240(5->12) | 280(6->24) | 284(7->1) | 326(8->14) | 347(9->7) | 385(10->17) | 414(11->18) | 421(12->1) | 461(13->9) | 503(14->23) | 512(15->4) | 542(16->6) | 586(17->22) | 590(18->1) | 622(19->2) | 653(20->5) | 677(21->1) | 723(22->19) | 753(23->21) | 770(24->10) | ]
cr the 1-th chain: [ 1->8->14->23->21->1 ] (#non-depot=4) {#cumul.=5}
cr the 2-th chain: [ 1->15->4->1 ] (#non-depot=2) {#cumul.=7}
cr the 3-th chain: [ 1->13->9->7->1 ] (#non-depot=3) {#cumul.=10}
cr the 4-th chain: [ 1->16->6->24->10->17->22->19->2->20->5->12->1 ] (#non-depot=11) {#cumul.=21}
cr the 5-th chain: [ 1->3->11->18->1 ] (#non-depot=3) {#cumul.=24}
c Latest Answer = 0 by 16 loops
c restarts              : 40072
c conflicts             : 24558884       (6830 /sec)
c decisions             : 47656124       (0.00 % random) (13253 /sec)
c propagations          : 20096164321    (5588859 /sec)
c conflict literals     : 1472435151     (43.53 % deleted)
c Memory used           : 436.00 MB
c CPU time              : 3595.75 s
